30
55
2 12 16 18 24 
6 7 13 14 27 
6 8 24 29 30 
7 13 16 19 21 
3 6 10 13 19 
4 11 21 25 30 
7 9 12 27 28 
3 8 15 16 17 
10 21 22 27 28 
7 10 11 16 17 
14 16 21 27 28 
2 4 15 20 25 
8 11 12 27 30 
9 13 17 24 30 
4 18 22 28 30 
9 12 17 22 29 
7 15 21 25 30 
18 21 22 24 25 
2 5 14 16 19 
2 6 9 17 29 
1 11 13 17 28 
10 13 15 27 29 
2 11 18 23 29 
1 8 20 28 30 
9 11 15 27 30 
1 
2 
3 
4 
5 
6 
7 
8 
9 
10 
11 
12 
13 
14 
15 
16 
17 
18 
19 
20 
21 
22 
23 
24 
25 
26 
27 
28 
29 
30 
